networks/zoo_136_912/lower/zoo_136_912-lower.txt
Number of groups: 73
Flow 13: {2 8 0} {8 76 0} 
Flow 18: {63 26 0} {26 17 0} {17 85 0} 
Flow 29: {2 7 0} {7 51 0} {51 37 0} {37 105 0} 
Flow 32: {62 44 0} {44 112 0} 
Flow 38: {61 57 0} {57 125 0} 
Flow 51: {3 7 0} {7 11 0} {11 79 0} 
Flow 78: {6 5 0} {5 73 0} 
Flow 88: {63 16 0} {16 84 0} 
Flow 95: {4 28 0} {28 96 0} 
Flow 103: {17 18 0} {18 40 0} {40 108 0} 
Flow 107: {62 45 0} {45 113 0} 
Flow 108: {62 46 0} {46 114 0} 
Flow 123: {61 67 0} {67 135 0} 
Flow 125: {5 8 0} {8 2 0} 
Flow 135: {5 6 0} {6 7 0} {7 19 0} {19 53 0} {53 24 0} {24 92 0} 
Flow 170: {61 62 0} {62 14 0} {14 82 0} 
Flow 177: {7 52 0} {52 22 0} {22 90 0} 
Flow 182: {4 30 0} {30 98 0} 
Flow 186: {34 102 0} 
Flow 188: {7 36 0} {36 104 0} 
Flow 197: {51 49 0} {49 117 0} 
Flow 203: {11 12 0} {12 56 0} {56 124 0} 
Flow 207: {7 59 0} {59 61 0} {61 60 0} {60 128 0} 
Flow 224: {10 30 0} {30 4 0} {4 72 0} 
Flow 253: {12 11 0} {11 7 0} {7 6 0} {6 74 0} 
Flow 259: {62 13 0} {13 81 0} 
Flow 297: {13 62 0} {62 61 0} {61 59 0} {59 7 0} {7 2 0} {2 70 0} 
Flow 331: {19 52 0} {52 120 0} 
Flow 341: {20 52 0} 
Flow 351: {21 52 0} {52 12 0} {12 80 0} 
Flow 365: {22 52 0} 
Flow 373: {23 53 0} {53 19 0} {19 7 0} {7 75 0} 
Flow 386: {24 53 0} 
Flow 403: {27 9 0} {9 4 0} {4 3 0} {3 59 0} {59 127 0} 
Flow 405: {28 4 0} 
Flow 417: {29 53 0} 
Flow 449: {31 68 0} {68 63 0} {63 62 0} {62 130 0} 
Flow 450: {33 52 0} 
Flow 458: {35 2 0} {2 34 0} {34 53 0} {53 121 0} 
Flow 462: {37 51 0} 
Flow 475: {42 41 0} {41 62 0} {62 63 0} {63 15 0} {15 83 0} 
Flow 505: {40 39 0} {39 42 0} {42 110 0} 
Flow 510: {18 17 0} {17 26 0} {26 63 0} {63 61 0} {61 129 0} 
Flow 523: {41 42 0} {42 39 0} {39 40 0} {40 18 0} {18 86 0} 
Flow 557: {44 62 0} 
Flow 568: {46 62 0} 
Flow 569: {47 52 0} 
Flow 580: {49 51 0} {51 7 0} 
Flow 589: {50 51 0} {51 119 0} 
Flow 608: {51 12 0} {12 1 0} {1 63 0} {63 131 0} 
Flow 619: {30 10 0} {10 78 0} 
Flow 628: {52 20 0} {20 88 0} 
Flow 641: {62 41 0} {41 109 0} 
Flow 646: {52 48 0} {48 116 0} 
Flow 650: {52 55 0} {55 123 0} 
Flow 679: {53 23 0} {23 91 0} 
Flow 685: {53 52 0} {52 33 0} {33 101 0} 
Flow 686: {53 34 0} {34 2 0} {2 35 0} {35 103 0} 
Flow 700: {53 58 0} {58 126 0} 
Flow 707: {54 52 0} {52 7 0} {7 3 0} {3 71 0} 
Flow 720: {55 52 0} {52 19 0} {19 87 0} 
Flow 726: {56 12 0} 
Flow 734: {57 61 0} 
Flow 774: {59 3 0} {3 4 0} {4 65 0} {65 133 0} 
Flow 786: {60 61 0} {61 63 0} {63 68 0} {68 136 0} 
Flow 832: {12 52 0} {52 53 0} {53 29 0} {29 97 0} 
Flow 855: {64 61 0} 
Flow 859: {65 4 0} {4 1 0} 
Flow 866: {67 61 0} 
Flow 880: {1 4 0} {4 9 0} {9 77 0} 
Flow 891: {68 31 0} {31 99 0} 
Flow 892: {68 32 0} {32 100 0} 
Flow 900: {63 1 0} {1 12 0} {12 51 0} {51 50 0} {50 118 0} 
Time taken running everything: 4 seconds
