networks/zoo_136_912/lower/zoo_136_912-lower.sol
<?xml version = "1.0" encoding="UTF-8" standalone="yes"?>
<CPLEXSolution version="1.2">
 <header
   problemName="networks/zoo_136_912/zoo_136_912-lower.lp"
   solutionName="incumbent"
   solutionIndex="-1"
   objectiveValue="73"
   solutionTypeValue="3"
   solutionTypeString="primal"
   solutionStatusValue="101"
   solutionStatusString="integer optimal solution"
   solutionMethodString="mip"
   primalFeasible="1"
   dualFeasible="1"
   MIPNodes="0"
   MIPIterations="2376"
   writeLevel="3"/>
 <quality
   epInt="1.0000000000000001e-05"
   epRHS="9.9999999999999995e-07"
   maxIntInfeas="0"
   maxPrimalInfeas="0"
   maxX="1"
   maxSlack="1"/>
 <variables>
  <variable name="Y(13,8)" index="1447" value="1"/>
  <variable name="Y(18,17)" index="2056" value="1"/>
  <variable name="Y(29,37)" index="3395" value="1"/>
  <variable name="Y(32,44)" index="3760" value="1"/>
  <variable name="Y(38,57)" index="4493" value="1"/>
  <variable name="Y(51,11)" index="6010" value="1"/>
  <variable name="Y(78,5)" index="9244" value="1"/>
  <variable name="Y(88,16)" index="10455" value="1"/>
  <variable name="Y(95,28)" index="11306" value="1"/>
  <variable name="Y(103,40)" index="12277" value="1"/>
  <variable name="Y(107,45)" index="12761" value="1"/>
  <variable name="Y(108,46)" index="12882" value="1"/>
  <variable name="Y(123,67)" index="14702" value="1"/>
  <variable name="Y(125,8)" index="14887" value="1"/>
  <variable name="Y(135,24)" index="16103" value="1"/>
  <variable name="Y(170,14)" index="20293" value="1"/>
  <variable name="Y(177,22)" index="21141" value="1"/>
  <variable name="Y(182,30)" index="21748" value="1"/>
  <variable name="Y(186,34)" index="22232" value="1"/>
  <variable name="Y(188,36)" index="22474" value="1"/>
  <variable name="Y(197,49)" index="23565" value="1"/>
  <variable name="Y(203,56)" index="24292" value="1"/>
  <variable name="Y(207,60)" index="24776" value="1"/>
  <variable name="Y(224,4)" index="26763" value="1"/>
  <variable name="Y(253,6)" index="30245" value="1"/>
  <variable name="Y(259,13)" index="30972" value="1"/>
  <variable name="Y(297,2)" index="35521" value="1"/>
  <variable name="Y(331,52)" index="39648" value="1"/>
  <variable name="Y(341,20)" index="40819" value="1"/>
  <variable name="Y(351,12)" index="42011" value="1"/>
  <variable name="Y(365,22)" index="43701" value="1"/>
  <variable name="Y(373,7)" index="44646" value="1"/>
  <variable name="Y(386,24)" index="46223" value="1"/>
  <variable name="Y(403,59)" index="48295" value="1"/>
  <variable name="Y(405,28)" index="48506" value="1"/>
  <variable name="Y(417,29)" index="49947" value="1"/>
  <variable name="Y(449,62)" index="53818" value="1"/>
  <variable name="Y(450,33)" index="53911" value="1"/>
  <variable name="Y(458,53)" index="54889" value="1"/>
  <variable name="Y(462,37)" index="55355" value="1"/>
  <variable name="Y(475,15)" index="56894" value="1"/>
  <variable name="Y(505,42)" index="60519" value="1"/>
  <variable name="Y(510,61)" index="61137" value="1"/>
  <variable name="Y(523,18)" index="62657" value="1"/>
  <variable name="Y(557,44)" index="66760" value="1"/>
  <variable name="Y(568,46)" index="68082" value="1"/>
  <variable name="Y(569,47)" index="68203" value="1"/>
  <variable name="Y(580,51)" index="69527" value="1"/>
  <variable name="Y(589,51)" index="70607" value="1"/>
  <variable name="Y(608,63)" index="72899" value="1"/>
  <variable name="Y(619,10)" index="74169" value="1"/>
  <variable name="Y(628,20)" index="75259" value="1"/>
  <variable name="Y(641,41)" index="76838" value="1"/>
  <variable name="Y(646,48)" index="77444" value="1"/>
  <variable name="Y(650,55)" index="77931" value="1"/>
  <variable name="Y(679,23)" index="81382" value="1"/>
  <variable name="Y(685,33)" index="82111" value="1"/>
  <variable name="Y(686,35)" index="82233" value="1"/>
  <variable name="Y(700,58)" index="83934" value="1"/>
  <variable name="Y(707,3)" index="84722" value="1"/>
  <variable name="Y(720,19)" index="86298" value="1"/>
  <variable name="Y(726,56)" index="87052" value="1"/>
  <variable name="Y(734,57)" index="88013" value="1"/>
  <variable name="Y(774,65)" index="92821" value="1"/>
  <variable name="Y(786,68)" index="94263" value="1"/>
  <variable name="Y(832,29)" index="99747" value="1"/>
  <variable name="Y(855,64)" index="102540" value="1"/>
  <variable name="Y(859,4)" index="102963" value="1"/>
  <variable name="Y(866,67)" index="103862" value="1"/>
  <variable name="Y(880,9)" index="105488" value="1"/>
  <variable name="Y(891,31)" index="106829" value="1"/>
  <variable name="Y(892,32)" index="106950" value="1"/>
  <variable name="Y(900,50)" index="107926" value="1"/>
  <variable name="X(1,4,880)" index="110319" value="1"/>
  <variable name="X(1,12,900)" index="111251" value="1"/>
  <variable name="X(1,63,608)" index="111871" value="1"/>
  <variable name="X(2,7,29)" index="112204" value="1"/>
  <variable name="X(2,8,13)" index="113100" value="1"/>
  <variable name="X(2,34,458)" index="114457" value="1"/>
  <variable name="X(2,35,686)" index="115597" value="1"/>
  <variable name="X(2,70,297)" index="116120" value="1"/>
  <variable name="X(3,4,774)" index="117509" value="1"/>
  <variable name="X(3,7,51)" index="117698" value="1"/>
  <variable name="X(3,59,403)" index="118962" value="1"/>
  <variable name="X(3,71,707)" index="120178" value="1"/>
  <variable name="X(4,1,859)" index="121242" value="1"/>
  <variable name="X(4,3,403)" index="121698" value="1"/>
  <variable name="X(4,9,880)" index="123087" value="1"/>
  <variable name="X(4,28,95)" index="123214" value="1"/>
  <variable name="X(4,30,182)" index="124213" value="1"/>
  <variable name="X(4,65,774)" index="125717" value="1"/>
  <variable name="X(4,72,224)" index="126079" value="1"/>
  <variable name="X(5,6,135)" index="126902" value="1"/>
  <variable name="X(5,8,125)" index="127804" value="1"/>
  <variable name="X(5,73,78)" index="128669" value="1"/>
  <variable name="X(6,5,78)" index="129581" value="1"/>
  <variable name="X(6,7,135)" index="130550" value="1"/>
  <variable name="X(6,74,253)" index="131580" value="1"/>
  <variable name="X(7,2,297)" index="132536" value="1"/>
  <variable name="X(7,3,707)" index="133858" value="1"/>
  <variable name="X(7,6,253)" index="134316" value="1"/>
  <variable name="X(7,11,51)" index="135026" value="1"/>
  <variable name="X(7,19,135)" index="136022" value="1"/>
  <variable name="X(7,36,188)" index="136987" value="1"/>
  <variable name="X(7,51,29)" index="137740" value="1"/>
  <variable name="X(7,52,177)" index="138800" value="1"/>
  <variable name="X(7,59,207)" index="139742" value="1"/>
  <variable name="X(7,75,373)" index="140820" value="1"/>
  <variable name="X(8,2,125)" index="141484" value="1"/>
  <variable name="X(8,76,13)" index="142284" value="1"/>
  <variable name="X(9,4,403)" index="143586" value="1"/>
  <variable name="X(9,77,880)" index="144975" value="1"/>
  <variable name="X(10,30,224)" index="145231" value="1"/>
  <variable name="X(10,78,619)" index="146538" value="1"/>
  <variable name="X(11,7,253)" index="147084" value="1"/>
  <variable name="X(11,12,203)" index="147946" value="1"/>
  <variable name="X(11,79,51)" index="148706" value="1"/>
  <variable name="X(12,1,608)" index="150175" value="1"/>
  <variable name="X(12,11,253)" index="150732" value="1"/>
  <variable name="X(12,51,900)" index="152291" value="1"/>
  <variable name="X(12,52,832)" index="153135" value="1"/>
  <variable name="X(12,56,203)" index="153418" value="1"/>
  <variable name="X(12,80,351)" index="154478" value="1"/>
  <variable name="X(13,62,297)" index="155336" value="1"/>
  <variable name="X(13,81,259)" index="156210" value="1"/>
  <variable name="X(14,82,170)" index="157033" value="1"/>
  <variable name="X(15,83,475)" index="158250" value="1"/>
  <variable name="X(16,84,88)" index="158775" value="1"/>
  <variable name="X(17,18,103)" index="159702" value="1"/>
  <variable name="X(17,26,510)" index="161021" value="1"/>
  <variable name="X(17,85,18)" index="161441" value="1"/>
  <variable name="X(18,17,510)" index="162845" value="1"/>
  <variable name="X(18,40,103)" index="163350" value="1"/>
  <variable name="X(18,86,523)" index="164682" value="1"/>
  <variable name="X(19,7,373)" index="165444" value="1"/>
  <variable name="X(19,52,331)" index="166314" value="1"/>
  <variable name="X(19,53,135)" index="167030" value="1"/>
  <variable name="X(19,87,720)" index="168527" value="1"/>
  <variable name="X(20,52,341)" index="169060" value="1"/>
  <variable name="X(20,88,628)" index="170259" value="1"/>
  <variable name="X(21,52,351)" index="170894" value="1"/>
  <variable name="X(22,52,365)" index="171820" value="1"/>
  <variable name="X(22,90,177)" index="172544" value="1"/>
  <variable name="X(23,53,373)" index="173652" value="1"/>
  <variable name="X(23,91,679)" index="174870" value="1"/>
  <variable name="X(24,53,386)" index="175489" value="1"/>
  <variable name="X(24,92,135)" index="176150" value="1"/>
  <variable name="X(26,17,18)" index="176945" value="1"/>
  <variable name="X(26,63,510)" index="178349" value="1"/>
  <variable name="X(27,9,403)" index="179154" value="1"/>
  <variable name="X(28,4,405)" index="180068" value="1"/>
  <variable name="X(28,96,95)" index="180670" value="1"/>
  <variable name="X(29,53,417)" index="181904" value="1"/>
  <variable name="X(29,97,832)" index="183231" value="1"/>
  <variable name="X(30,4,224)" index="183535" value="1"/>
  <variable name="X(30,10,619)" index="184842" value="1"/>
  <variable name="X(30,98,182)" index="185317" value="1"/>
  <variable name="X(31,68,449)" index="186496" value="1"/>
  <variable name="X(31,99,891)" index="187850" value="1"/>
  <variable name="X(32,100,892)" index="188763" value="1"/>
  <variable name="X(33,52,450)" index="189233" value="1"/>
  <variable name="X(33,101,685)" index="190380" value="1"/>
  <variable name="X(34,2,686)" index="191293" value="1"/>
  <variable name="X(34,53,458)" index="191977" value="1"/>
  <variable name="X(34,102,186)" index="192617" value="1"/>
  <variable name="X(35,2,458)" index="193801" value="1"/>
  <variable name="X(35,103,686)" index="194941" value="1"/>
  <variable name="X(36,104,188)" index="195355" value="1"/>
  <variable name="X(37,51,462)" index="196541" value="1"/>
  <variable name="X(37,105,29)" index="197020" value="1"/>
  <variable name="X(39,40,523)" index="198426" value="1"/>
  <variable name="X(39,42,505)" index="199320" value="1"/>
  <variable name="X(40,18,523)" index="200250" value="1"/>
  <variable name="X(40,39,505)" index="201144" value="1"/>
  <variable name="X(40,108,103)" index="201654" value="1"/>
  <variable name="X(41,42,523)" index="202986" value="1"/>
  <variable name="X(41,62,475)" index="203850" value="1"/>
  <variable name="X(41,109,641)" index="204928" value="1"/>
  <variable name="X(42,39,523)" index="205722" value="1"/>
  <variable name="X(42,41,475)" index="206586" value="1"/>
  <variable name="X(42,110,505)" index="207528" value="1"/>
  <variable name="X(44,62,557)" index="208492" value="1"/>
  <variable name="X(44,112,32)" index="208879" value="1"/>
  <variable name="X(45,113,107)" index="209866" value="1"/>
  <variable name="X(46,62,568)" index="211239" value="1"/>
  <variable name="X(46,114,108)" index="211691" value="1"/>
  <variable name="X(47,52,569)" index="213064" value="1"/>
  <variable name="X(48,116,646)" index="214053" value="1"/>
  <variable name="X(49,51,580)" index="214899" value="1"/>
  <variable name="X(49,117,197)" index="215428" value="1"/>
  <variable name="X(50,51,589)" index="216732" value="1"/>
  <variable name="X(50,118,900)" index="217955" value="1"/>
  <variable name="X(51,7,580)" index="218547" value="1"/>
  <variable name="X(51,12,608)" index="219487" value="1"/>
  <variable name="X(51,37,29)" index="219820" value="1"/>
  <variable name="X(51,49,197)" index="220900" value="1"/>
  <variable name="X(51,50,900)" index="222515" value="1"/>
  <variable name="X(51,119,589)" index="223116" value="1"/>
  <variable name="X(52,7,707)" index="224146" value="1"/>
  <variable name="X(52,12,351)" index="224702" value="1"/>
  <variable name="X(52,19,720)" index="225983" value="1"/>
  <variable name="X(52,20,628)" index="226803" value="1"/>
  <variable name="X(52,22,177)" index="227264" value="1"/>
  <variable name="X(52,33,685)" index="228684" value="1"/>
  <variable name="X(52,48,646)" index="229557" value="1"/>
  <variable name="X(52,53,832)" index="230655" value="1"/>
  <variable name="X(52,55,650)" index="231385" value="1"/>
  <variable name="X(52,120,331)" index="231978" value="1"/>
  <variable name="X(53,19,373)" index="232932" value="1"/>
  <variable name="X(53,23,679)" index="234150" value="1"/>
  <variable name="X(53,24,135)" index="234518" value="1"/>
  <variable name="X(53,29,832)" index="236127" value="1"/>
  <variable name="X(53,34,686)" index="236893" value="1"/>
  <variable name="X(53,52,685)" index="237804" value="1"/>
  <variable name="X(53,58,700)" index="238731" value="1"/>
  <variable name="X(53,121,458)" index="239401" value="1"/>
  <variable name="X(54,52,707)" index="240562" value="1"/>
  <variable name="X(55,52,720)" index="241487" value="1"/>
  <variable name="X(55,123,650)" index="242329" value="1"/>
  <variable name="X(56,12,726)" index="243317" value="1"/>
  <variable name="X(56,124,203)" index="243706" value="1"/>
  <variable name="X(57,61,734)" index="245149" value="1"/>
  <variable name="X(57,125,38)" index="245365" value="1"/>
  <variable name="X(58,126,700)" index="246939" value="1"/>
  <variable name="X(59,3,774)" index="247925" value="1"/>
  <variable name="X(59,7,297)" index="248360" value="1"/>
  <variable name="X(59,61,207)" index="249182" value="1"/>
  <variable name="X(59,127,403)" index="250290" value="1"/>
  <variable name="X(60,61,786)" index="251585" value="1"/>
  <variable name="X(60,128,207)" index="251918" value="1"/>
  <variable name="X(61,57,38)" index="252661" value="1"/>
  <variable name="X(61,59,297)" index="253832" value="1"/>
  <variable name="X(61,60,207)" index="254654" value="1"/>
  <variable name="X(61,62,170)" index="255529" value="1"/>
  <variable name="X(61,63,786)" index="257057" value="1"/>
  <variable name="X(61,67,123)" index="257306" value="1"/>
  <variable name="X(61,129,510)" index="258605" value="1"/>
  <variable name="X(62,13,259)" index="259266" value="1"/>
  <variable name="X(62,14,170)" index="260089" value="1"/>
  <variable name="X(62,41,641)" index="261472" value="1"/>
  <variable name="X(62,44,32)" index="261775" value="1"/>
  <variable name="X(62,45,107)" index="262762" value="1"/>
  <variable name="X(62,46,108)" index="263675" value="1"/>
  <variable name="X(62,61,297)" index="264776" value="1"/>
  <variable name="X(62,63,475)" index="265866" value="1"/>
  <variable name="X(62,130,449)" index="266752" value="1"/>
  <variable name="X(63,1,900)" index="268115" value="1"/>
  <variable name="X(63,15,475)" index="268602" value="1"/>
  <variable name="X(63,16,88)" index="269127" value="1"/>
  <variable name="X(63,26,18)" index="269969" value="1"/>
  <variable name="X(63,61,510)" index="271373" value="1"/>
  <variable name="X(63,62,449)" index="272224" value="1"/>
  <variable name="X(63,68,786)" index="273473" value="1"/>
  <variable name="X(63,131,608)" index="274207" value="1"/>
  <variable name="X(64,61,855)" index="275366" value="1"/>
  <variable name="X(65,4,859)" index="276282" value="1"/>
  <variable name="X(65,133,774)" index="277109" value="1"/>
  <variable name="X(67,61,866)" index="278113" value="1"/>
  <variable name="X(67,135,123)" index="278282" value="1"/>
  <variable name="X(68,31,891)" index="279962" value="1"/>
  <variable name="X(68,32,892)" index="280875" value="1"/>
  <variable name="X(68,63,449)" index="281344" value="1"/>
  <variable name="X(68,136,786)" index="282593" value="1"/>
 </variables>
</CPLEXSolution>
